<?xml version = "1.0" standalone="yes"?>
<!-- This file has been generated by DOcplex version 2.23.222  -->
<CPLEXSolution version="1.0">
 <header
   problemName="CVRP"
   objectiveValue="11396"
  />
 <variables>
  <variable name="x_0_1" index="0" value="1.00000"/>
  <variable name="x_0_2" index="1" value="1.00000"/>
  <variable name="x_0_3" index="2" value="1.00000"/>
  <variable name="x_0_5" index="4" value="1.00000"/>
  <variable name="x_0_6" index="5" value="1.00000"/>
  <variable name="x_0_8" index="7" value="1.00000"/>
  <variable name="x_0_13" index="12" value="1.00000"/>
  <variable name="x_0_14" index="13" value="1.00000"/>
  <variable name="x_0_15" index="14" value="1.00000"/>
  <variable name="x_1_0" index="16" value="1.00000"/>
  <variable name="x_2_0" index="32" value="1.00000"/>
  <variable name="x_3_7" index="54" value="1.00000"/>
  <variable name="x_4_0" index="64" value="1.00000"/>
  <variable name="x_5_16" index="95" value="1.00000"/>
  <variable name="x_6_9" index="104" value="1.00000"/>
  <variable name="x_7_0" index="112" value="1.00000"/>
  <variable name="x_8_0" index="128" value="1.00000"/>
  <variable name="x_9_0" index="144" value="1.00000"/>
  <variable name="x_10_0" index="160" value="1.00000"/>
  <variable name="x_11_0" index="176" value="1.00000"/>
  <variable name="x_12_11" index="203" value="1.00000"/>
  <variable name="x_13_10" index="218" value="1.00000"/>
  <variable name="x_14_12" index="236" value="1.00000"/>
  <variable name="x_15_0" index="240" value="1.00000"/>
  <variable name="x_16_4" index="260" value="1.00000"/>
  <variable name="u_1" index="272" value="27.00000"/>
  <variable name="u_2" index="273" value="28.00000"/>
  <variable name="u_3" index="274" value="32.00000"/>
  <variable name="u_4" index="275" value="39.00000"/>
  <variable name="u_5" index="276" value="19.00000"/>
  <variable name="u_6" index="277" value="30.00000"/>
  <variable name="u_7" index="278" value="39.00000"/>
  <variable name="u_8" index="279" value="35.00000"/>
  <variable name="u_9" index="280" value="40.00000"/>
  <variable name="u_10" index="281" value="36.00000"/>
  <variable name="u_11" index="282" value="35.00000"/>
  <variable name="u_12" index="283" value="20.00000"/>
  <variable name="u_13" index="284" value="18.00000"/>
  <variable name="u_14" index="285" value="2.00000"/>
  <variable name="u_15" index="286" value="24.00000"/>
  <variable name="u_16" index="287" value="36.00000"/>
 </variables>
</CPLEXSolution>
